benchmark/results/graph__10-1000-0.10-03_13/graph__10-1000-0.10-03_13_Quinton_Benders_sub.lp
\ This file has been generated by DOcplex
\ ENCODING=ISO-8859-1
\Problem name: Quinton Benders_dual_sub

Minimize
 obj: 0.001295336788 pi_nr_a0 + 0.000982318271 pi_nr_a1
      + 0.001331557923 pi_nr_a2 + 0.001182033097 pi_nr_a3
      + 0.000931098696 pi_nr_a4 + 0.001683501684 pi_nr_a5
      + 0.001059322034 pi_nr_a6 + 0.002169197397 pi_nr_a7
      + 0.001162790698 pi_nr_a8 + 0.000824402308 pi_nr_a9 + pi_p_a2_a4
      + pi_p_a8_a9 + pi_p_a5_a3 + pi_p_a2_a9 + pi_p_a5_a6 + pi_p_a8_a3
      + pi_d_a1_a0_proc_2 + 2588 pi_d_a0_a2_proc_1 + pi_d_a2_a0_proc_2
      + 2589 pi_d_a2_a0_proc_1 + pi_d_a0_a3_proc_2 + pi_d_a0_a3_proc_1
      + 2588 pi_d_a3_a0_proc_2 + 2588 pi_d_a3_a0_proc_1 + 2589 pi_d_a0_a4_proc_2
      + 2589 pi_d_a0_a4_proc_1 + 2588 pi_d_a0_a5_proc_2 + 3882 pi_d_a0_a5_proc_1
      + pi_d_a5_a0_proc_2 + 1295 pi_d_a5_a0_proc_1 + 2588 pi_d_a0_a6_proc_2
      + 3882 pi_d_a0_a6_proc_1 + pi_d_a6_a0_proc_2 + 1295 pi_d_a6_a0_proc_1
      + 2588 pi_d_a0_a7_proc_1 + pi_d_a7_a0_proc_2 + 2589 pi_d_a7_a0_proc_1
      + 2588 pi_d_a0_a8_proc_1 + pi_d_a8_a0_proc_1 + pi_d_a0_a9_proc_2
      + 1295 pi_d_a0_a9_proc_1 + 2588 pi_d_a9_a0_proc_2 + 3882 pi_d_a9_a0_proc_1
      + pi_d_a2_a1_proc_2 + 2589 pi_d_a1_a3_proc_2 + 2589 pi_d_a1_a4_proc_2
      + 2588 pi_d_a1_a5_proc_2 + pi_d_a5_a1_proc_2 + 2588 pi_d_a1_a6_proc_2
      + pi_d_a6_a1_proc_2 + pi_d_a1_a7_proc_2 + 2589 pi_d_a1_a9_proc_2
      + pi_d_a2_a3_proc_2 + pi_d_a2_a3_proc_1 + 2588 pi_d_a3_a2_proc_2
      + 2588 pi_d_a3_a2_proc_1 + 2589 pi_d_a2_a4_proc_2 + 2589 pi_d_a2_a4_proc_1
      + pi_d_a2_a5_proc_2 + 1295 pi_d_a2_a5_proc_1 + pi_d_a2_a5_proc_0
      + 2588 pi_d_a5_a2_proc_2 + 3882 pi_d_a5_a2_proc_1 + 2588 pi_d_a5_a2_proc_0
      + 2589 pi_d_a2_a6_proc_2 + 3883 pi_d_a2_a6_proc_1 + 2589 pi_d_a2_a6_proc_0
      + 1294 pi_d_a6_a2_proc_1 + pi_d_a2_a7_proc_2 + 2589 pi_d_a2_a7_proc_1
      + 2589 pi_d_a2_a7_proc_0 + 2588 pi_d_a7_a2_proc_1 + 2588 pi_d_a7_a2_proc_0
      + 2588 pi_d_a2_a8_proc_1 + 3882 pi_d_a2_a8_proc_0 + pi_d_a8_a2_proc_1
      + 1295 pi_d_a8_a2_proc_0 + 2589 pi_d_a2_a9_proc_2 + 3883 pi_d_a2_a9_proc_1
      + 2589 pi_d_a2_a9_proc_0 + 1294 pi_d_a9_a2_proc_1 + 2589 pi_d_a3_a4_proc_2
      + pi_d_a3_a4_proc_1 + 2588 pi_d_a4_a3_proc_2 + 3882 pi_d_a3_a5_proc_2
      + 2588 pi_d_a3_a5_proc_1 + 1295 pi_d_a5_a3_proc_2 + pi_d_a5_a3_proc_1
      + 1294 pi_d_a3_a6_proc_2 + 3883 pi_d_a6_a3_proc_2 + 2589 pi_d_a6_a3_proc_1
      + 2588 pi_d_a3_a7_proc_2 + 2588 pi_d_a3_a7_proc_1 + pi_d_a7_a3_proc_2
      + pi_d_a7_a3_proc_1 + pi_d_a8_a3_proc_1 + 3882 pi_d_a3_a9_proc_2
      + 2588 pi_d_a3_a9_proc_1 + 1295 pi_d_a9_a3_proc_2 + pi_d_a9_a3_proc_1
      + 3882 pi_d_a4_a5_proc_2 + 2588 pi_d_a4_a5_proc_1 + 1295 pi_d_a5_a4_proc_2
      + pi_d_a5_a4_proc_1 + 2688 pi_d_a4_a6_proc_2 + 1394 pi_d_a4_a6_proc_1
      + 2489 pi_d_a6_a4_proc_2 + 1195 pi_d_a6_a4_proc_1 + 2588 pi_d_a4_a7_proc_2
      + 2588 pi_d_a4_a7_proc_1 + pi_d_a7_a4_proc_2 + pi_d_a7_a4_proc_1
      + pi_d_a8_a4_proc_1 + 1294 pi_d_a4_a9_proc_2 + 3883 pi_d_a9_a4_proc_2
      + 2589 pi_d_a9_a4_proc_1 + 2589 pi_d_a5_a6_proc_2 + 2589 pi_d_a5_a6_proc_1
      + pi_d_a5_a6_proc_0 + 2588 pi_d_a6_a5_proc_2 + 2588 pi_d_a6_a5_proc_1
      + 2589 pi_d_a5_a7_proc_2 + 3883 pi_d_a5_a7_proc_1 + 2589 pi_d_a5_a7_proc_0
      + 1294 pi_d_a7_a5_proc_1 + 2588 pi_d_a5_a8_proc_1 + 2588 pi_d_a5_a8_proc_0
      + pi_d_a8_a5_proc_1 + pi_d_a8_a5_proc_0 + 2589 pi_d_a5_a9_proc_2
      + 2589 pi_d_a5_a9_proc_1 + pi_d_a5_a9_proc_0 + 2588 pi_d_a9_a5_proc_2
      + 2588 pi_d_a9_a5_proc_1 + 2588 pi_d_a6_a7_proc_2 + 3882 pi_d_a6_a7_proc_1
      + 2588 pi_d_a6_a7_proc_0 + pi_d_a7_a6_proc_2 + 1295 pi_d_a7_a6_proc_1
      + pi_d_a7_a6_proc_0 + 2588 pi_d_a6_a8_proc_1 + 2588 pi_d_a6_a8_proc_0
      + pi_d_a8_a6_proc_1 + pi_d_a8_a6_proc_0 + 2589 pi_d_a6_a9_proc_2
      + 2589 pi_d_a6_a9_proc_1 + pi_d_a6_a9_proc_0 + 2588 pi_d_a9_a6_proc_2
      + 2588 pi_d_a9_a6_proc_1 + 1294 pi_d_a7_a8_proc_0 + 2589 pi_d_a8_a7_proc_1
      + 3883 pi_d_a8_a7_proc_0 + 2588 pi_d_a7_a9_proc_2 + 3882 pi_d_a7_a9_proc_1
      + 2588 pi_d_a7_a9_proc_0 + pi_d_a9_a7_proc_2 + 1295 pi_d_a9_a7_proc_1
      + pi_d_a9_a7_proc_0 + 2589 pi_d_a8_a9_proc_1 + 2589 pi_d_a8_a9_proc_0
      + pi_y2_a0_proc_2 + pi_y2_a1_proc_2 + pi_y2_a2_proc_2 + pi_y2_a3_proc_1
      + pi_y2_a4_proc_1 + pi_y2_a5_proc_0 + pi_y2_a6_proc_0 + pi_y2_a7_proc_2
      + pi_y2_a8_proc_1 + pi_y2_a9_proc_0
Subject To
 c1: pi_nr_a0 + pi_nr_a1 + pi_nr_a2 + pi_nr_a3 + pi_nr_a4 + pi_nr_a5 + pi_nr_a6
     + pi_nr_a7 + pi_nr_a8 + pi_nr_a9 - pi_y1_a0 - pi_y1_a1 - pi_y1_a2
     - pi_y1_a3 - pi_y1_a4 - pi_y1_a5 - pi_y1_a6 - pi_y1_a7 - pi_y1_a8
     - pi_y1_a9 >= 1
 c2: pi_p_a0_a1 - pi_p_a3_a0 + pi_p_a0_a7 + pi_d_a0_a1_proc_2
     - pi_d_a1_a0_proc_2 + pi_d_a0_a2_proc_2 + pi_d_a0_a2_proc_1
     - pi_d_a2_a0_proc_2 - pi_d_a2_a0_proc_1 + pi_d_a0_a3_proc_2
     + pi_d_a0_a3_proc_1 - pi_d_a3_a0_proc_2 - pi_d_a3_a0_proc_1
     + pi_d_a0_a4_proc_2 + pi_d_a0_a4_proc_1 - pi_d_a4_a0_proc_2
     - pi_d_a4_a0_proc_1 + pi_d_a0_a5_proc_2 + pi_d_a0_a5_proc_1
     - pi_d_a5_a0_proc_2 - pi_d_a5_a0_proc_1 + pi_d_a0_a6_proc_2
     + pi_d_a0_a6_proc_1 - pi_d_a6_a0_proc_2 - pi_d_a6_a0_proc_1
     + pi_d_a0_a7_proc_2 + pi_d_a0_a7_proc_1 - pi_d_a7_a0_proc_2
     - pi_d_a7_a0_proc_1 + pi_d_a0_a8_proc_1 - pi_d_a8_a0_proc_1
     + pi_d_a0_a9_proc_2 + pi_d_a0_a9_proc_1 - pi_d_a9_a0_proc_2
     - pi_d_a9_a0_proc_1 >= 0
 c3: 1052 pi_p_a0_a1 + 1052 pi_p_a0_a7 + 1052 pi_d_a0_a2_proc_1
     + 1052 pi_d_a0_a3_proc_1 + 1052 pi_d_a0_a4_proc_1 + 1052 pi_d_a0_a5_proc_1
     + 1052 pi_d_a0_a6_proc_1 + 1052 pi_d_a0_a7_proc_1 + 1052 pi_d_a0_a8_proc_1
     + 1052 pi_d_a0_a9_proc_1 + pi_y1_a0 + pi_y2_a0_proc_1 >= 0
 c4: 772 pi_p_a0_a1 + 772 pi_p_a0_a7 + 772 pi_d_a0_a1_proc_2
     + 772 pi_d_a0_a2_proc_2 + 772 pi_d_a0_a3_proc_2 + 772 pi_d_a0_a4_proc_2
     + 772 pi_d_a0_a5_proc_2 + 772 pi_d_a0_a6_proc_2 + 772 pi_d_a0_a7_proc_2
     + 772 pi_d_a0_a9_proc_2 + pi_y1_a0 + pi_y2_a0_proc_2 >= 0
 c5: - pi_p_a0_a1 + pi_p_a1_a2 + pi_p_a1_a5 - pi_p_a7_a1 - pi_d_a0_a1_proc_2
     + pi_d_a1_a0_proc_2 + pi_d_a1_a2_proc_2 - pi_d_a2_a1_proc_2
     + pi_d_a1_a3_proc_2 - pi_d_a3_a1_proc_2 + pi_d_a1_a4_proc_2
     - pi_d_a4_a1_proc_2 + pi_d_a1_a5_proc_2 - pi_d_a5_a1_proc_2
     + pi_d_a1_a6_proc_2 - pi_d_a6_a1_proc_2 + pi_d_a1_a7_proc_2
     - pi_d_a7_a1_proc_2 + pi_d_a1_a9_proc_2 - pi_d_a9_a1_proc_2 >= 0
 c6: 1018 pi_p_a1_a2 + 1018 pi_p_a1_a5 + 1018 pi_d_a1_a0_proc_2
     + 1018 pi_d_a1_a2_proc_2 + 1018 pi_d_a1_a3_proc_2 + 1018 pi_d_a1_a4_proc_2
     + 1018 pi_d_a1_a5_proc_2 + 1018 pi_d_a1_a6_proc_2 + 1018 pi_d_a1_a7_proc_2
     + 1018 pi_d_a1_a9_proc_2 + pi_y1_a1 + pi_y2_a1_proc_2 >= 0
 c7: - pi_p_a1_a2 + pi_p_a2_a4 + pi_p_a2_a9 - pi_d_a0_a2_proc_2
     - pi_d_a0_a2_proc_1 + pi_d_a2_a0_proc_2 + pi_d_a2_a0_proc_1
     - pi_d_a1_a2_proc_2 + pi_d_a2_a1_proc_2 + pi_d_a2_a3_proc_2
     + pi_d_a2_a3_proc_1 - pi_d_a3_a2_proc_2 - pi_d_a3_a2_proc_1
     + pi_d_a2_a4_proc_2 + pi_d_a2_a4_proc_1 - pi_d_a4_a2_proc_2
     - pi_d_a4_a2_proc_1 + pi_d_a2_a5_proc_2 + pi_d_a2_a5_proc_1
     + pi_d_a2_a5_proc_0 - pi_d_a5_a2_proc_2 - pi_d_a5_a2_proc_1
     - pi_d_a5_a2_proc_0 + pi_d_a2_a6_proc_2 + pi_d_a2_a6_proc_1
     + pi_d_a2_a6_proc_0 - pi_d_a6_a2_proc_2 - pi_d_a6_a2_proc_1
     - pi_d_a6_a2_proc_0 + pi_d_a2_a7_proc_2 + pi_d_a2_a7_proc_1
     + pi_d_a2_a7_proc_0 - pi_d_a7_a2_proc_2 - pi_d_a7_a2_proc_1
     - pi_d_a7_a2_proc_0 + pi_d_a2_a8_proc_1 + pi_d_a2_a8_proc_0
     - pi_d_a8_a2_proc_1 - pi_d_a8_a2_proc_0 + pi_d_a2_a9_proc_2
     + pi_d_a2_a9_proc_1 + pi_d_a2_a9_proc_0 - pi_d_a9_a2_proc_2
     - pi_d_a9_a2_proc_1 - pi_d_a9_a2_proc_0 >= 0
 c8: 735 pi_p_a2_a4 + 735 pi_p_a2_a9 + 735 pi_d_a2_a5_proc_0
     + 735 pi_d_a2_a6_proc_0 + 735 pi_d_a2_a7_proc_0 + 735 pi_d_a2_a8_proc_0
     + 735 pi_d_a2_a9_proc_0 + pi_y1_a2 + pi_y2_a2_proc_0 >= 0
 c9: 843 pi_p_a2_a4 + 843 pi_p_a2_a9 + 843 pi_d_a2_a0_proc_1
     + 843 pi_d_a2_a3_proc_1 + 843 pi_d_a2_a4_proc_1 + 843 pi_d_a2_a5_proc_1
     + 843 pi_d_a2_a6_proc_1 + 843 pi_d_a2_a7_proc_1 + 843 pi_d_a2_a8_proc_1
     + 843 pi_d_a2_a9_proc_1 + pi_y1_a2 + pi_y2_a2_proc_1 >= 0
 c10: 751 pi_p_a2_a4 + 751 pi_p_a2_a9 + 751 pi_d_a2_a0_proc_2
      + 751 pi_d_a2_a1_proc_2 + 751 pi_d_a2_a3_proc_2 + 751 pi_d_a2_a4_proc_2
      + 751 pi_d_a2_a5_proc_2 + 751 pi_d_a2_a6_proc_2 + 751 pi_d_a2_a7_proc_2
      + 751 pi_d_a2_a9_proc_2 + pi_y1_a2 + pi_y2_a2_proc_2 >= 0
 c11: pi_p_a3_a0 + pi_p_a3_a8 - pi_p_a5_a3 - pi_p_a4_a3 - pi_p_a8_a3
      - pi_d_a0_a3_proc_2 - pi_d_a0_a3_proc_1 + pi_d_a3_a0_proc_2
      + pi_d_a3_a0_proc_1 - pi_d_a1_a3_proc_2 + pi_d_a3_a1_proc_2
      - pi_d_a2_a3_proc_2 - pi_d_a2_a3_proc_1 + pi_d_a3_a2_proc_2
      + pi_d_a3_a2_proc_1 + pi_d_a3_a4_proc_2 + pi_d_a3_a4_proc_1
      - pi_d_a4_a3_proc_2 - pi_d_a4_a3_proc_1 + pi_d_a3_a5_proc_2
      + pi_d_a3_a5_proc_1 - pi_d_a5_a3_proc_2 - pi_d_a5_a3_proc_1
      + pi_d_a3_a6_proc_2 + pi_d_a3_a6_proc_1 - pi_d_a6_a3_proc_2
      - pi_d_a6_a3_proc_1 + pi_d_a3_a7_proc_2 + pi_d_a3_a7_proc_1
      - pi_d_a7_a3_proc_2 - pi_d_a7_a3_proc_1 + pi_d_a3_a8_proc_1
      - pi_d_a8_a3_proc_1 + pi_d_a3_a9_proc_2 + pi_d_a3_a9_proc_1
      - pi_d_a9_a3_proc_2 - pi_d_a9_a3_proc_1 >= 0
 c12: 846 pi_p_a3_a0 + 846 pi_p_a3_a8 + 846 pi_d_a3_a0_proc_1
      + 846 pi_d_a3_a2_proc_1 + 846 pi_d_a3_a4_proc_1 + 846 pi_d_a3_a5_proc_1
      + 846 pi_d_a3_a6_proc_1 + 846 pi_d_a3_a7_proc_1 + 846 pi_d_a3_a8_proc_1
      + 846 pi_d_a3_a9_proc_1 + pi_y1_a3 + pi_y2_a3_proc_1 >= 0
 c13: 1095 pi_p_a3_a0 + 1095 pi_p_a3_a8 + 1095 pi_d_a3_a0_proc_2
      + 1095 pi_d_a3_a1_proc_2 + 1095 pi_d_a3_a2_proc_2 + 1095 pi_d_a3_a4_proc_2
      + 1095 pi_d_a3_a5_proc_2 + 1095 pi_d_a3_a6_proc_2 + 1095 pi_d_a3_a7_proc_2
      + 1095 pi_d_a3_a9_proc_2 + pi_y1_a3 + pi_y2_a3_proc_2 >= 0
 c14: - pi_p_a2_a4 + pi_p_a4_a3 - pi_d_a0_a4_proc_2 - pi_d_a0_a4_proc_1
      + pi_d_a4_a0_proc_2 + pi_d_a4_a0_proc_1 - pi_d_a1_a4_proc_2
      + pi_d_a4_a1_proc_2 - pi_d_a2_a4_proc_2 - pi_d_a2_a4_proc_1
      + pi_d_a4_a2_proc_2 + pi_d_a4_a2_proc_1 - pi_d_a3_a4_proc_2
      - pi_d_a3_a4_proc_1 + pi_d_a4_a3_proc_2 + pi_d_a4_a3_proc_1
      + pi_d_a4_a5_proc_2 + pi_d_a4_a5_proc_1 - pi_d_a5_a4_proc_2
      - pi_d_a5_a4_proc_1 + pi_d_a4_a6_proc_2 + pi_d_a4_a6_proc_1
      - pi_d_a6_a4_proc_2 - pi_d_a6_a4_proc_1 + pi_d_a4_a7_proc_2
      + pi_d_a4_a7_proc_1 - pi_d_a7_a4_proc_2 - pi_d_a7_a4_proc_1
      + pi_d_a4_a8_proc_1 - pi_d_a8_a4_proc_1 + pi_d_a4_a9_proc_2
      + pi_d_a4_a9_proc_1 - pi_d_a9_a4_proc_2 - pi_d_a9_a4_proc_1 >= 0
 c15: 1074 pi_p_a4_a3 + 1074 pi_d_a4_a0_proc_1 + 1074 pi_d_a4_a2_proc_1
      + 1074 pi_d_a4_a3_proc_1 + 1074 pi_d_a4_a5_proc_1 + 1074 pi_d_a4_a6_proc_1
      + 1074 pi_d_a4_a7_proc_1 + 1074 pi_d_a4_a8_proc_1 + 1074 pi_d_a4_a9_proc_1
      + pi_y1_a4 + pi_y2_a4_proc_1 >= 0
 c16: 1276 pi_p_a4_a3 + 1276 pi_d_a4_a0_proc_2 + 1276 pi_d_a4_a1_proc_2
      + 1276 pi_d_a4_a2_proc_2 + 1276 pi_d_a4_a3_proc_2 + 1276 pi_d_a4_a5_proc_2
      + 1276 pi_d_a4_a6_proc_2 + 1276 pi_d_a4_a7_proc_2 + 1276 pi_d_a4_a9_proc_2
      + pi_y1_a4 + pi_y2_a4_proc_2 >= 0
 c17: - pi_p_a1_a5 - pi_p_a6_a5 + pi_p_a5_a3 + pi_p_a5_a6 - pi_d_a0_a5_proc_2
      - pi_d_a0_a5_proc_1 + pi_d_a5_a0_proc_2 + pi_d_a5_a0_proc_1
      - pi_d_a1_a5_proc_2 + pi_d_a5_a1_proc_2 - pi_d_a2_a5_proc_2
      - pi_d_a2_a5_proc_1 - pi_d_a2_a5_proc_0 + pi_d_a5_a2_proc_2
      + pi_d_a5_a2_proc_1 + pi_d_a5_a2_proc_0 - pi_d_a3_a5_proc_2
      - pi_d_a3_a5_proc_1 + pi_d_a5_a3_proc_2 + pi_d_a5_a3_proc_1
      - pi_d_a4_a5_proc_2 - pi_d_a4_a5_proc_1 + pi_d_a5_a4_proc_2
      + pi_d_a5_a4_proc_1 + pi_d_a5_a6_proc_2 + pi_d_a5_a6_proc_1
      + pi_d_a5_a6_proc_0 - pi_d_a6_a5_proc_2 - pi_d_a6_a5_proc_1
      - pi_d_a6_a5_proc_0 + pi_d_a5_a7_proc_2 + pi_d_a5_a7_proc_1
      + pi_d_a5_a7_proc_0 - pi_d_a7_a5_proc_2 - pi_d_a7_a5_proc_1
      - pi_d_a7_a5_proc_0 + pi_d_a5_a8_proc_1 + pi_d_a5_a8_proc_0
      - pi_d_a8_a5_proc_1 - pi_d_a8_a5_proc_0 + pi_d_a5_a9_proc_2
      + pi_d_a5_a9_proc_1 + pi_d_a5_a9_proc_0 - pi_d_a9_a5_proc_2
      - pi_d_a9_a5_proc_1 - pi_d_a9_a5_proc_0 >= 0
 c18: 594 pi_p_a5_a3 + 594 pi_p_a5_a6 + 594 pi_d_a5_a2_proc_0
      + 594 pi_d_a5_a6_proc_0 + 594 pi_d_a5_a7_proc_0 + 594 pi_d_a5_a8_proc_0
      + 594 pi_d_a5_a9_proc_0 + pi_y1_a5 + pi_y2_a5_proc_0 >= 0
 c19: 1075 pi_p_a5_a3 + 1075 pi_p_a5_a6 + 1075 pi_d_a5_a0_proc_1
      + 1075 pi_d_a5_a2_proc_1 + 1075 pi_d_a5_a3_proc_1 + 1075 pi_d_a5_a4_proc_1
      + 1075 pi_d_a5_a6_proc_1 + 1075 pi_d_a5_a7_proc_1 + 1075 pi_d_a5_a8_proc_1
      + 1075 pi_d_a5_a9_proc_1 + pi_y1_a5 + pi_y2_a5_proc_1 >= 0
 c20: 1232 pi_p_a5_a3 + 1232 pi_p_a5_a6 + 1232 pi_d_a5_a0_proc_2
      + 1232 pi_d_a5_a1_proc_2 + 1232 pi_d_a5_a2_proc_2 + 1232 pi_d_a5_a3_proc_2
      + 1232 pi_d_a5_a4_proc_2 + 1232 pi_d_a5_a6_proc_2 + 1232 pi_d_a5_a7_proc_2
      + 1232 pi_d_a5_a9_proc_2 + pi_y1_a5 + pi_y2_a5_proc_2 >= 0
 c21: pi_p_a6_a5 - pi_p_a9_a6 - pi_p_a5_a6 + pi_p_a6_a8 - pi_d_a0_a6_proc_2
      - pi_d_a0_a6_proc_1 + pi_d_a6_a0_proc_2 + pi_d_a6_a0_proc_1
      - pi_d_a1_a6_proc_2 + pi_d_a6_a1_proc_2 - pi_d_a2_a6_proc_2
      - pi_d_a2_a6_proc_1 - pi_d_a2_a6_proc_0 + pi_d_a6_a2_proc_2
      + pi_d_a6_a2_proc_1 + pi_d_a6_a2_proc_0 - pi_d_a3_a6_proc_2
      - pi_d_a3_a6_proc_1 + pi_d_a6_a3_proc_2 + pi_d_a6_a3_proc_1
      - pi_d_a4_a6_proc_2 - pi_d_a4_a6_proc_1 + pi_d_a6_a4_proc_2
      + pi_d_a6_a4_proc_1 - pi_d_a5_a6_proc_2 - pi_d_a5_a6_proc_1
      - pi_d_a5_a6_proc_0 + pi_d_a6_a5_proc_2 + pi_d_a6_a5_proc_1
      + pi_d_a6_a5_proc_0 + pi_d_a6_a7_proc_2 + pi_d_a6_a7_proc_1
      + pi_d_a6_a7_proc_0 - pi_d_a7_a6_proc_2 - pi_d_a7_a6_proc_1
      - pi_d_a7_a6_proc_0 + pi_d_a6_a8_proc_1 + pi_d_a6_a8_proc_0
      - pi_d_a8_a6_proc_1 - pi_d_a8_a6_proc_0 + pi_d_a6_a9_proc_2
      + pi_d_a6_a9_proc_1 + pi_d_a6_a9_proc_0 - pi_d_a9_a6_proc_2
      - pi_d_a9_a6_proc_1 - pi_d_a9_a6_proc_0 >= 0
 c22: 944 pi_p_a6_a5 + 944 pi_p_a6_a8 + 944 pi_d_a6_a2_proc_0
      + 944 pi_d_a6_a5_proc_0 + 944 pi_d_a6_a7_proc_0 + 944 pi_d_a6_a8_proc_0
      + 944 pi_d_a6_a9_proc_0 + pi_y1_a6 + pi_y2_a6_proc_0 >= 0
 c23: 981 pi_p_a6_a5 + 981 pi_p_a6_a8 + 981 pi_d_a6_a0_proc_1
      + 981 pi_d_a6_a2_proc_1 + 981 pi_d_a6_a3_proc_1 + 981 pi_d_a6_a4_proc_1
      + 981 pi_d_a6_a5_proc_1 + 981 pi_d_a6_a7_proc_1 + 981 pi_d_a6_a8_proc_1
      + 981 pi_d_a6_a9_proc_1 + pi_y1_a6 + pi_y2_a6_proc_1 >= 0
 c24: 904 pi_p_a6_a5 + 904 pi_p_a6_a8 + 904 pi_d_a6_a0_proc_2
      + 904 pi_d_a6_a1_proc_2 + 904 pi_d_a6_a2_proc_2 + 904 pi_d_a6_a3_proc_2
      + 904 pi_d_a6_a4_proc_2 + 904 pi_d_a6_a5_proc_2 + 904 pi_d_a6_a7_proc_2
      + 904 pi_d_a6_a9_proc_2 + pi_y1_a6 + pi_y2_a6_proc_2 >= 0
 c25: pi_p_a7_a1 - pi_p_a0_a7 - pi_d_a0_a7_proc_2 - pi_d_a0_a7_proc_1
      + pi_d_a7_a0_proc_2 + pi_d_a7_a0_proc_1 - pi_d_a1_a7_proc_2
      + pi_d_a7_a1_proc_2 - pi_d_a2_a7_proc_2 - pi_d_a2_a7_proc_1
      - pi_d_a2_a7_proc_0 + pi_d_a7_a2_proc_2 + pi_d_a7_a2_proc_1
      + pi_d_a7_a2_proc_0 - pi_d_a3_a7_proc_2 - pi_d_a3_a7_proc_1
      + pi_d_a7_a3_proc_2 + pi_d_a7_a3_proc_1 - pi_d_a4_a7_proc_2
      - pi_d_a4_a7_proc_1 + pi_d_a7_a4_proc_2 + pi_d_a7_a4_proc_1
      - pi_d_a5_a7_proc_2 - pi_d_a5_a7_proc_1 - pi_d_a5_a7_proc_0
      + pi_d_a7_a5_proc_2 + pi_d_a7_a5_proc_1 + pi_d_a7_a5_proc_0
      - pi_d_a6_a7_proc_2 - pi_d_a6_a7_proc_1 - pi_d_a6_a7_proc_0
      + pi_d_a7_a6_proc_2 + pi_d_a7_a6_proc_1 + pi_d_a7_a6_proc_0
      + pi_d_a7_a8_proc_1 + pi_d_a7_a8_proc_0 - pi_d_a8_a7_proc_1
      - pi_d_a8_a7_proc_0 + pi_d_a7_a9_proc_2 + pi_d_a7_a9_proc_1
      + pi_d_a7_a9_proc_0 - pi_d_a9_a7_proc_2 - pi_d_a9_a7_proc_1
      - pi_d_a9_a7_proc_0 >= 0
 c26: 1294 pi_p_a7_a1 + 1294 pi_d_a7_a2_proc_0 + 1294 pi_d_a7_a5_proc_0
      + 1294 pi_d_a7_a6_proc_0 + 1294 pi_d_a7_a8_proc_0 + 1294 pi_d_a7_a9_proc_0
      + pi_y1_a7 + pi_y2_a7_proc_0 >= 0
 c27: 824 pi_p_a7_a1 + 824 pi_d_a7_a0_proc_1 + 824 pi_d_a7_a2_proc_1
      + 824 pi_d_a7_a3_proc_1 + 824 pi_d_a7_a4_proc_1 + 824 pi_d_a7_a5_proc_1
      + 824 pi_d_a7_a6_proc_1 + 824 pi_d_a7_a8_proc_1 + 824 pi_d_a7_a9_proc_1
      + pi_y1_a7 + pi_y2_a7_proc_1 >= 0
 c28: 461 pi_p_a7_a1 + 461 pi_d_a7_a0_proc_2 + 461 pi_d_a7_a1_proc_2
      + 461 pi_d_a7_a2_proc_2 + 461 pi_d_a7_a3_proc_2 + 461 pi_d_a7_a4_proc_2
      + 461 pi_d_a7_a5_proc_2 + 461 pi_d_a7_a6_proc_2 + 461 pi_d_a7_a9_proc_2
      + pi_y1_a7 + pi_y2_a7_proc_2 >= 0
 c29: - pi_p_a3_a8 + pi_p_a8_a9 - pi_p_a6_a8 + pi_p_a8_a3 - pi_d_a0_a8_proc_1
      + pi_d_a8_a0_proc_1 - pi_d_a2_a8_proc_1 - pi_d_a2_a8_proc_0
      + pi_d_a8_a2_proc_1 + pi_d_a8_a2_proc_0 - pi_d_a3_a8_proc_1
      + pi_d_a8_a3_proc_1 - pi_d_a4_a8_proc_1 + pi_d_a8_a4_proc_1
      - pi_d_a5_a8_proc_1 - pi_d_a5_a8_proc_0 + pi_d_a8_a5_proc_1
      + pi_d_a8_a5_proc_0 - pi_d_a6_a8_proc_1 - pi_d_a6_a8_proc_0
      + pi_d_a8_a6_proc_1 + pi_d_a8_a6_proc_0 - pi_d_a7_a8_proc_1
      - pi_d_a7_a8_proc_0 + pi_d_a8_a7_proc_1 + pi_d_a8_a7_proc_0
      + pi_d_a8_a9_proc_1 + pi_d_a8_a9_proc_0 - pi_d_a9_a8_proc_1
      - pi_d_a9_a8_proc_0 >= 0
 c30: 783 pi_p_a8_a9 + 783 pi_p_a8_a3 + 783 pi_d_a8_a2_proc_0
      + 783 pi_d_a8_a5_proc_0 + 783 pi_d_a8_a6_proc_0 + 783 pi_d_a8_a7_proc_0
      + 783 pi_d_a8_a9_proc_0 + pi_y1_a8 + pi_y2_a8_proc_0 >= 0
 c31: 860 pi_p_a8_a9 + 860 pi_p_a8_a3 + 860 pi_d_a8_a0_proc_1
      + 860 pi_d_a8_a2_proc_1 + 860 pi_d_a8_a3_proc_1 + 860 pi_d_a8_a4_proc_1
      + 860 pi_d_a8_a5_proc_1 + 860 pi_d_a8_a6_proc_1 + 860 pi_d_a8_a7_proc_1
      + 860 pi_d_a8_a9_proc_1 + pi_y1_a8 + pi_y2_a8_proc_1 >= 0
 c32: pi_p_a9_a6 - pi_p_a8_a9 - pi_p_a2_a9 - pi_d_a0_a9_proc_2
      - pi_d_a0_a9_proc_1 + pi_d_a9_a0_proc_2 + pi_d_a9_a0_proc_1
      - pi_d_a1_a9_proc_2 + pi_d_a9_a1_proc_2 - pi_d_a2_a9_proc_2
      - pi_d_a2_a9_proc_1 - pi_d_a2_a9_proc_0 + pi_d_a9_a2_proc_2
      + pi_d_a9_a2_proc_1 + pi_d_a9_a2_proc_0 - pi_d_a3_a9_proc_2
      - pi_d_a3_a9_proc_1 + pi_d_a9_a3_proc_2 + pi_d_a9_a3_proc_1
      - pi_d_a4_a9_proc_2 - pi_d_a4_a9_proc_1 + pi_d_a9_a4_proc_2
      + pi_d_a9_a4_proc_1 - pi_d_a5_a9_proc_2 - pi_d_a5_a9_proc_1
      - pi_d_a5_a9_proc_0 + pi_d_a9_a5_proc_2 + pi_d_a9_a5_proc_1
      + pi_d_a9_a5_proc_0 - pi_d_a6_a9_proc_2 - pi_d_a6_a9_proc_1
      - pi_d_a6_a9_proc_0 + pi_d_a9_a6_proc_2 + pi_d_a9_a6_proc_1
      + pi_d_a9_a6_proc_0 - pi_d_a7_a9_proc_2 - pi_d_a7_a9_proc_1
      - pi_d_a7_a9_proc_0 + pi_d_a9_a7_proc_2 + pi_d_a9_a7_proc_1
      + pi_d_a9_a7_proc_0 - pi_d_a8_a9_proc_1 - pi_d_a8_a9_proc_0
      + pi_d_a9_a8_proc_1 + pi_d_a9_a8_proc_0 >= 0
 c33: 1213 pi_p_a9_a6 + 1213 pi_d_a9_a2_proc_0 + 1213 pi_d_a9_a5_proc_0
      + 1213 pi_d_a9_a6_proc_0 + 1213 pi_d_a9_a7_proc_0 + 1213 pi_d_a9_a8_proc_0
      + pi_y1_a9 + pi_y2_a9_proc_0 >= 0
 c34: 1007 pi_p_a9_a6 + 1007 pi_d_a9_a0_proc_1 + 1007 pi_d_a9_a2_proc_1
      + 1007 pi_d_a9_a3_proc_1 + 1007 pi_d_a9_a4_proc_1 + 1007 pi_d_a9_a5_proc_1
      + 1007 pi_d_a9_a6_proc_1 + 1007 pi_d_a9_a7_proc_1 + 1007 pi_d_a9_a8_proc_1
      + pi_y1_a9 + pi_y2_a9_proc_1 >= 0
 c35: 1013 pi_p_a9_a6 + 1013 pi_d_a9_a0_proc_2 + 1013 pi_d_a9_a1_proc_2
      + 1013 pi_d_a9_a2_proc_2 + 1013 pi_d_a9_a3_proc_2 + 1013 pi_d_a9_a4_proc_2
      + 1013 pi_d_a9_a5_proc_2 + 1013 pi_d_a9_a6_proc_2 + 1013 pi_d_a9_a7_proc_2
      + pi_y1_a9 + pi_y2_a9_proc_2 >= 0

Bounds
       pi_y1_a0 Free
       pi_y1_a1 Free
       pi_y1_a2 Free
       pi_y1_a3 Free
       pi_y1_a4 Free
       pi_y1_a5 Free
       pi_y1_a6 Free
       pi_y1_a7 Free
       pi_y1_a8 Free
       pi_y1_a9 Free
End
