benchmark/results/graph__10-1000-0.10-03_13/graph__10-1000-0.10-03_13_Quinton_Benders_sub.txt
solution for: Quinton Benders_dual_sub
objective: 0.000203169
status: OPTIMAL_SOLUTION(2)
pi_p_a1_a2=0.000
pi_p_a3_a0=0.000
pi_p_a2_a4=0.000
pi_p_a0_a7=0.000
pi_p_a4_a3=0.000
pi_d_a7_a1_proc_2=0.000
pi_y1_a0=-0.157
pi_y1_a1=-0.207
pi_y1_a2=-0.153
pi_y1_a3=-0.172
pi_y1_a4=-0.218
pi_y1_a7=-0.094
pi_y2_a2_proc_0=0.003
pi_y2_a7_proc_0=0.094
pi_y2_a7_proc_1=0.094
